
Gurobi 10.0.2 (win64, Python) logging started Fri Feb 16 13:52:06 2024

Set parameter Username
Set parameter LogFile to value "C:\Users\ghadi\Downloads\Discrete Optimization Project - Gurobi- Instance 3\Discrete Optimization Project - Instance 3-Log File.log"
Academic license - for non-commercial use only - expires 2024-07-07
Set parameter Threads to value 1
Set parameter Presolve to value 1
Set parameter Method to value 0
Set parameter TimeLimit to value 2400
Set parameter PreSparsify to value 1

Gurobi 10.0.2 (win64, Python) logging started Fri Feb 16 13:52:19 2024

Set parameter Username
Set parameter LogFile to value "C:\Users\ghadi\Downloads\Discrete Optimization Project - Gurobi- Instance 3\Discrete Optimization Project - Instance 3-Log File.log"
Academic license - for non-commercial use only - expires 2024-07-07
Set parameter Threads to value 1
Set parameter Presolve to value 1
Set parameter Method to value 0
Set parameter TimeLimit to value 1200
Set parameter PreSparsify to value 1
Gurobi Optimizer version 10.0.2 build v10.0.2rc0 (win64)

CPU model: 12th Gen Intel(R) Core(TM) i5-1235U, instruction set [SSE2|AVX|AVX2]
Thread count: 10 physical cores, 12 logical processors, using up to 1 threads

Optimize a model with 1877490 rows, 185060 columns and 3589158 nonzeros
Model fingerprint: 0x2ed586a1
Variable types: 0 continuous, 185060 integer (185060 binary)
Coefficient statistics:
  Matrix range     [1e+00, 1e+00]
  Objective range  [9e-04, 3e+00]
  Bounds range     [1e+00, 1e+00]
  RHS range        [1e+00, 1e+00]
Presolve removed 853471 rows and 132570 columns (presolve time = 5s) ...
Presolve removed 854829 rows and 132570 columns (presolve time = 10s) ...
Presolve removed 854836 rows and 132570 columns (presolve time = 15s) ...
Presolve removed 854836 rows and 132570 columns (presolve time = 20s) ...
Sparsify removed 2127 nonzeros (0%)
Presolve removed 854836 rows and 132374 columns
Presolve time: 20.29s
Presolved: 1022654 rows, 52686 columns, 3160016 nonzeros
Variable types: 0 continuous, 52686 integer (52678 binary)
Root relaxation presolved: 52686 rows, 1075340 columns, 3212702 nonzeros


Root simplex log...

Iteration    Objective       Primal Inf.    Dual Inf.      Time
       0   -0.0000000e+00   0.000000e+00   3.780000e+02     23s
   10651    2.9183821e-02   0.000000e+00   2.080496e+04     25s
   37987    5.3969753e-02   0.000000e+00   1.436451e+04     30s
   65323    6.5448195e-02   0.000000e+00   1.006970e+04     35s
   95071    7.2670959e-02   0.000000e+00   2.071165e+02     40s
  103658   -0.0000000e+00   0.000000e+00   0.000000e+00     42s
  103658   -0.0000000e+00   0.000000e+00   0.000000e+00     42s
  103658    0.0000000e+00   0.000000e+00   0.000000e+00     42s

Root relaxation: objective 0.000000e+00, 103658 iterations, 20.35 seconds (48.34 work units)

    Nodes    |    Current Node    |     Objective Bounds      |     Work
 Expl Unexpl |  Obj  Depth IntInf | Incumbent    BestBd   Gap | It/Node Time

     0     0    0.00000    0 1068          -    0.00000      -     -  110s
     0     0    0.00000    0 1138          -    0.00000      -     -  352s
     0     0    0.00000    0 1084          -    0.00000      -     -  468s
     0     0    0.00000    0 1127          -    0.00000      -     -  786s
     0     0    0.00000    0 1080          -    0.00000      -     -  897s
     0     0    0.00000    0 1131          -    0.00000      -     - 1200s

Cutting planes:
  Clique: 369
  MIR: 5
  Zero half: 53
  RLT: 3845
  BQP: 1863

Explored 1 nodes (212485 simplex iterations) in 1200.10 seconds (3930.35 work units)
Thread count was 1 (of 12 available processors)

Solution count 0

Time limit reached
Best objective -, best bound 0.000000000000e+00, gap -
Gurobi Optimizer version 10.0.2 build v10.0.2rc0 (win64)

CPU model: 12th Gen Intel(R) Core(TM) i5-1235U, instruction set [SSE2|AVX|AVX2]
Thread count: 10 physical cores, 12 logical processors, using up to 1 threads

Optimize a model with 1877490 rows, 185060 columns and 3589158 nonzeros
Model fingerprint: 0x2ed586a1
Variable types: 0 continuous, 185060 integer (185060 binary)
Coefficient statistics:
  Matrix range     [1e+00, 1e+00]
  Objective range  [9e-04, 3e+00]
  Bounds range     [1e+00, 1e+00]
  RHS range        [1e+00, 1e+00]
Presolved: 1022654 rows, 52686 columns, 3160016 nonzeros

Continuing optimization...

     0     0    0.00000    0 1056          -    0.00000      -     - 1292s
     0     0    0.00000    0 1056          -    0.00000      -     - 1402s
     0     0    0.00000    0 1056          -    0.00000      -     - 1554s
H    0     0                      54.5831111    0.00000   100%     - 2195s
H    0     0                      54.5653333    0.00000   100%     - 2230s
     0     2    0.00000    0 1056   54.56533    0.00000   100%     - 2400s

Cutting planes:
  Clique: 37
  MIR: 3
  Zero half: 1
  RLT: 317
  BQP: 8

Explored 1 nodes (335933 simplex iterations) in 1200.13 seconds (2426.36 work units)
Thread count was 1 (of 12 available processors)

Solution count 2: 54.5653 54.5831 

Time limit reached
Best objective 5.456533333333e+01, best bound 0.000000000000e+00, gap 100.0000%
